results_rootrelaxation/bin012_080_035.srr.sol
solution status: optimal solution found
objective value:                                 18.8
_var400_                           0.0714285714285715 	(obj:1)
_var698_                             0.27142857142857 	(obj:1)
_var727_                           0.0857142857142861 	(obj:2)
_var731_                           0.0857142857142871 	(obj:1)
_var733_                            0.128571428571429 	(obj:2)
_var737_                            0.057142857142854 	(obj:2)
_var746_                            0.157142857142857 	(obj:3)
_var747_                           0.0714285714285715 	(obj:2)
_var752_                           0.0142857142857156 	(obj:2)
_var754_                            0.142857142857145 	(obj:1)
_var760_                            0.114285714285714 	(obj:3)
_var763_                            0.914285714285713 	(obj:1)
_var766_                            0.314285714285714 	(obj:1)
_var772_                            0.114285714285714 	(obj:1)
_var776_                           0.0714285714285712 	(obj:2)
_var788_                            0.414285714285714 	(obj:1)
_var790_                                          0.4 	(obj:2)
_var797_                            0.642857142857143 	(obj:1)
_var803_                           0.0999999999999984 	(obj:1)
_var812_                           0.0428571428571424 	(obj:2)
_var813_                            0.128571428571427 	(obj:2)
_var814_                           0.0285714285714288 	(obj:1)
_var820_                           0.0428571428571436 	(obj:1)
_var825_                            0.171428571428572 	(obj:1)
_var828_                                          0.6 	(obj:1)
_var833_                            0.157142857142857 	(obj:3)
_var835_                           0.0571428571428581 	(obj:3)
_var837_                            0.642857142857144 	(obj:3)
_var844_                           0.0428571428571424 	(obj:4)
_var846_                             0.42857142857143 	(obj:2)
_var853_                            0.214285714285715 	(obj:2)
_var857_                            0.242857142857142 	(obj:2)
_var859_                           0.0857142857142859 	(obj:2)
_var860_                            0.228571428571428 	(obj:2)
_var864_                           0.0428571428571435 	(obj:1)
_var865_                           0.0714285714285715 	(obj:2)
_var867_                           0.0428571428571436 	(obj:3)
_var868_                            0.142857142857144 	(obj:1)
_var871_                           0.0428571428571425 	(obj:2)
_var874_                           0.0428571428571422 	(obj:4)
_var875_                            0.228571428571427 	(obj:2)
_var876_                           0.0714285714285704 	(obj:3)
_var877_                           0.0571428571428572 	(obj:1)
_var879_                           0.0857142857142871 	(obj:1)
_var880_                            0.228571428571427 	(obj:3)
_var882_                            0.457142857142855 	(obj:1)
_var884_                           0.0714285714285711 	(obj:3)
_var891_                           0.0285714285714269 	(obj:1)
_var892_                           0.0714285714285718 	(obj:1)
_var893_                            0.128571428571429 	(obj:3)
_var895_                            0.371428571428571 	(obj:1)
_var901_                           0.0857142857142871 	(obj:3)
_var903_                           0.0428571428571435 	(obj:1)
_var905_                            0.299999999999997 	(obj:1)
_var906_                           0.0428571428571437 	(obj:2)
_var909_                            0.471428571428572 	(obj:3)
_var910_                             0.12857142857143 	(obj:2)
_var911_                           0.0285714285714303 	(obj:1)
_var912_                           0.0714285714285699 	(obj:2)
_var913_                           0.0571428571428568 	(obj:1)
_var921_                            0.214285714285717 	(obj:2)
_var922_                           0.0857142857142864 	(obj:2)
